c Modular CNF with 2 modules
c Generated CNF instance
p cnf 15 224
7 4 1 0
7 4 -1 0
7 -4 1 0
-7 4 1 0
4 3 1 0
4 3 -1 0
4 -3 1 0
-4 3 1 0
4 2 5 0
4 2 -5 0
4 -2 5 0
-4 2 5 0
4 2 6 0
4 2 -6 0
4 -2 6 0
-4 2 6 0
6 2 3 0
6 2 -3 0
6 -2 3 0
-6 2 3 0
6 4 2 0
6 4 -2 0
6 -4 2 0
-6 4 2 0
6 7 3 0
6 7 -3 0
6 -7 3 0
-6 7 3 0
2 4 7 0
2 4 -7 0
2 -4 7 0
-2 4 7 0
1 6 4 0
1 6 -4 0
1 -6 4 0
-1 6 4 0
2 4 6 0
2 4 -6 0
2 -4 6 0
-2 4 6 0
6 2 1 0
6 2 -1 0
6 -2 1 0
-6 2 1 0
7 5 4 0
7 5 -4 0
7 -5 4 0
-7 5 4 0
6 2 5 0
6 2 -5 0
6 -2 5 0
-6 2 5 0
2 6 1 0
2 6 -1 0
2 -6 1 0
-2 6 1 0
3 2 7 0
3 2 -7 0
3 -2 7 0
-3 2 7 0
1 7 3 0
1 7 -3 0
1 -7 3 0
-1 7 3 0
7 1 3 0
7 1 -3 0
7 -1 3 0
-7 1 3 0
3 5 6 0
3 5 -6 0
3 -5 6 0
-3 5 6 0
1 2 3 0
1 2 -3 0
1 -2 3 0
-1 2 3 0
4 3 2 0
4 3 -2 0
4 -3 2 0
-4 3 2 0
2 3 5 0
2 3 -5 0
2 -3 5 0
-2 3 5 0
4 1 3 0
4 1 -3 0
4 -1 3 0
-4 1 3 0
4 7 3 0
4 7 -3 0
4 -7 3 0
-4 7 3 0
4 5 3 0
4 5 -3 0
4 -5 3 0
-4 5 3 0
4 3 1 0
4 3 -1 0
4 -3 1 0
-4 3 1 0
1 2 4 0
1 2 -4 0
1 -2 4 0
-1 2 4 0
6 7 1 0
6 7 -1 0
6 -7 1 0
-6 7 1 0
2 3 1 0
2 3 -1 0
2 -3 1 0
-2 3 1 0
14 10 9 0
14 10 -9 0
14 -10 9 0
-14 10 9 0
9 14 12 0
9 14 -12 0
9 -14 12 0
-9 14 12 0
14 10 13 0
14 10 -13 0
14 -10 13 0
-14 10 13 0
10 14 11 0
10 14 -11 0
10 -14 11 0
-10 14 11 0
13 9 11 0
13 9 -11 0
13 -9 11 0
-13 9 11 0
14 8 9 0
14 8 -9 0
14 -8 9 0
-14 8 9 0
14 9 10 0
14 9 -10 0
14 -9 10 0
-14 9 10 0
10 11 14 0
10 11 -14 0
10 -11 14 0
-10 11 14 0
8 12 13 0
8 12 -13 0
8 -12 13 0
-8 12 13 0
13 9 8 0
13 9 -8 0
13 -9 8 0
-13 9 8 0
11 14 12 0
11 14 -12 0
11 -14 12 0
-11 14 12 0
11 14 13 0
11 14 -13 0
11 -14 13 0
-11 14 13 0
12 8 10 0
12 8 -10 0
12 -8 10 0
-12 8 10 0
8 14 9 0
8 14 -9 0
8 -14 9 0
-8 14 9 0
9 8 10 0
9 8 -10 0
9 -8 10 0
-9 8 10 0
9 14 8 0
9 14 -8 0
9 -14 8 0
-9 14 8 0
8 9 12 0
8 9 -12 0
8 -9 12 0
-8 9 12 0
10 9 12 0
10 9 -12 0
10 -9 12 0
-10 9 12 0
10 8 9 0
10 8 -9 0
10 -8 9 0
-10 8 9 0
13 8 9 0
13 8 -9 0
13 -8 9 0
-13 8 9 0
9 13 10 0
9 13 -10 0
9 -13 10 0
-9 13 10 0
12 9 8 0
12 9 -8 0
12 -9 8 0
-12 9 8 0
11 10 9 0
11 10 -9 0
11 -10 9 0
-11 10 9 0
9 10 12 0
9 10 -12 0
9 -10 12 0
-9 10 12 0
8 12 14 0
8 12 -14 0
8 -12 14 0
-8 12 14 0
9 14 12 0
9 14 -12 0
9 -14 12 0
-9 14 12 0
12 14 11 0
12 14 -11 0
12 -14 11 0
-12 14 11 0
9 11 14 0
9 11 -14 0
9 -11 14 0
-9 11 14 0
